NAME : portcgen-15-90
COMMENT : portcgen N=15, seed=90
TYPE : TSP
DIMENSION : 15
EDGE_WEIGHT_TYPE : EUC_2D
NODE_COORD_SECTION
1 37 106
2 88 95
3 38 84
4 101 32
5 59 87
6 64 72
7 70 51
8 77 105
9 101 59
10 84 88
11 78 37
12 50 82
13 45 117
14 90 55
15 78 59
